Geographic Exponential Decay
20 182 46 221 135 208 14 145 27 87 196 183 113 157 115 303 217 138 206 306 126
p edge 320 319
e 0 122 5.0
e 1 69 13.0
e 1 13 25.0
e 1 41 31.0
e 1 0 18.0
e 2 162 5.0
e 2 1 34.0
e 3 121 11.0
e 3 2 5.0
e 4 267 1.0
e 4 3 6.0
e 5 148 1.0
e 5 4 2.0
e 6 112 5.0
e 6 5 1.0
e 7 183 89.0
e 7 6 1.0
e 8 126 75.0
e 8 7 2.0
e 9 38 4.0
e 9 8 12.0
e 10 174 12.0
e 10 161 8.0
e 10 9 9.0
e 11 104 1.0
e 11 10 17.0
e 12 105 1.0
e 12 11 3.0
e 14 247 55.0
e 14 72 45.0
e 14 299 51.0
e 14 119 27.0
e 14 301 8.0
e 14 12 98.0
e 15 137 8.0
e 15 24 15.0
e 15 14 54.0
e 16 238 1.0
e 16 15 20.0
e 17 248 3.0
e 17 16 1.0
e 18 282 1.0
e 18 17 2.0
e 19 186 4.0
e 19 18 6.0
e 20 302 1.0
e 20 19 5.0
e 21 155 1.0
e 21 20 5.0
e 22 149 1.0
e 22 21 2.0
e 23 272 3.0
e 23 22 4.0
e 25 87 22.0
e 25 23 4.0
e 26 283 1.0
e 26 25 4.0
e 27 89 20.0
e 27 63 6.0
e 27 125 5.0
e 27 79 4.0
e 27 37 20.0
e 27 26 85.0
e 28 168 2.0
e 28 27 81.0
e 29 224 1.0
e 29 28 1.0
e 30 216 4.0
e 30 29 1.0
e 31 312 1.0
e 32 164 1.0
e 32 30 1.0
e 33 90 6.0
e 33 32 1.0
e 34 226 3.0
e 34 33 1.0
e 35 63 21.0
e 36 87 41.0
e 37 317 2.0
e 39 270 9.0
e 39 34 4.0
e 40 42 5.0
e 40 39 4.0
e 43 44 2.0
e 43 40 3.0
e 45 67 2.0
e 45 43 1.0
e 46 81 42.0
e 46 312 72.0
e 46 113 29.0
e 46 91 9.0
e 46 230 13.0
e 47 127 1.0
e 47 45 1.0
e 48 239 1.0
e 48 47 11.0
e 49 206 90.0
e 49 48 4.0
e 50 143 2.0
e 50 49 1.0
e 51 203 5.0
e 51 50 2.0
e 52 53 1.0
e 52 51 3.0
e 54 303 83.0
e 55 160 3.0
e 55 52 2.0
e 56 144 3.0
e 56 55 1.0
e 57 221 44.0
e 57 56 1.0
e 58 183 67.0
e 59 60 3.0
e 59 57 1.0
e 61 86 1.0
e 61 59 2.0
e 62 64 3.0
e 62 61 1.0
e 65 159 1.0
e 65 62 1.0
e 66 68 1.0
e 66 65 3.0
e 70 94 6.0
e 70 66 5.0
e 71 73 2.0
e 71 70 1.0
e 74 201 8.0
e 74 71 8.0
e 75 264 1.0
e 75 74 8.0
e 76 77 1.0
e 76 75 2.0
e 78 304 1.0
e 78 76 1.0
e 80 217 19.0
e 80 78 5.0
e 82 83 1.0
e 82 80 1.0
e 84 180 3.0
e 84 307 1.0
e 84 82 2.0
e 85 87 95.0
e 85 128 24.0
e 87 88 56.0
e 87 232 18.0
e 90 300 23.0
e 92 93 5.0
e 92 84 7.0
e 95 142 4.0
e 95 92 2.0
e 96 225 21.0
e 96 97 9.0
e 96 95 21.0
e 98 235 2.0
e 98 96 19.0
e 99 100 6.0
e 99 98 1.0
e 101 102 6.0
e 101 99 1.0
e 103 183 89.0
e 106 163 7.0
e 106 303 64.0
e 107 108 11.0
e 107 101 1.0
e 109 175 1.0
e 109 107 3.0
e 110 229 5.0
e 110 109 3.0
e 111 176 4.0
e 113 114 57.0
e 113 115 77.0
e 113 133 85.0
e 113 116 95.0
e 115 271 76.0
e 115 303 14.0
e 115 117 59.0
e 115 249 7.0
e 118 254 3.0
e 118 110 1.0
e 120 124 6.0
e 120 118 2.0
e 122 123 33.0
e 122 240 3.0
e 126 129 6.0
e 126 276 3.0
e 126 176 42.0
e 126 303 91.0
e 130 154 3.0
e 130 120 3.0
e 131 273 3.0
e 131 130 1.0
e 132 134 2.0
e 132 131 1.0
e 135 207 6.0
e 135 136 42.0
e 135 138 6.0
e 135 193 45.0
e 135 139 97.0
e 135 132 64.0
e 138 250 16.0
e 138 313 24.0
e 138 196 42.0
e 138 140 60.0
e 141 251 1.0
e 141 135 3.0
e 145 146 9.0
e 145 147 84.0
e 145 185 7.0
e 145 291 78.0
e 145 150 22.0
e 145 141 17.0
e 151 152 1.0
e 151 145 6.0
e 153 252 6.0
e 153 151 6.0
e 156 157 83.0
e 156 153 7.0
e 157 231 57.0
e 157 158 87.0
e 157 165 66.0
e 157 166 14.0
e 167 244 1.0
e 167 156 8.0
e 169 170 2.0
e 169 167 4.0
e 171 314 1.0
e 171 260 2.0
e 171 169 10.0
e 172 173 2.0
e 172 171 5.0
e 177 277 2.0
e 177 172 6.0
e 178 200 1.0
e 178 177 2.0
e 179 181 1.0
e 179 178 1.0
e 182 183 74.0
e 182 184 6.0
e 182 187 82.0
e 182 188 67.0
e 182 189 61.0
e 183 198 14.0
e 190 245 11.0
e 190 179 1.0
e 191 205 3.0
e 191 190 3.0
e 192 194 1.0
e 192 191 4.0
e 195 196 11.0
e 196 296 60.0
e 196 274 49.0
e 196 197 22.0
e 199 275 2.0
e 199 192 5.0
e 201 215 22.0
e 202 233 5.0
e 204 206 34.0
e 206 233 63.0
e 206 208 2.0
e 206 209 51.0
e 208 286 27.0
e 208 210 29.0
e 208 211 84.0
e 208 295 2.0
e 212 213 20.0
e 212 199 11.0
e 213 214 1.0
e 217 218 36.0
e 217 219 87.0
e 217 289 78.0
e 217 220 26.0
e 221 246 68.0
e 221 222 4.0
e 221 223 8.0
e 221 227 5.0
e 228 234 1.0
e 228 212 2.0
e 236 237 9.0
e 236 228 1.0
e 241 297 1.0
e 241 236 5.0
e 242 243 1.0
e 242 241 12.0
e 253 255 1.0
e 253 242 1.0
e 256 268 4.0
e 256 253 1.0
e 257 258 1.0
e 257 256 1.0
e 259 303 93.0
e 261 262 2.0
e 261 257 1.0
e 263 265 5.0
e 263 261 1.0
e 266 290 6.0
e 266 263 1.0
e 269 278 5.0
e 269 266 5.0
e 279 280 1.0
e 279 269 5.0
e 281 284 4.0
e 281 285 1.0
e 281 279 22.0
e 287 288 1.0
e 287 281 17.0
e 292 293 1.0
e 292 287 4.0
e 294 295 15.0
e 295 298 4.0
e 305 306 4.0
e 305 292 5.0
e 306 308 30.0
e 306 309 67.0
e 306 310 51.0
e 306 311 99.0
e 311 315 22.0
e 316 318 2.0
e 316 305 1.0
e 319 316 2.0
